p edge 49 338
e 1 3
e 1 4
e 1 5
e 1 8
e 1 14
e 1 22
e 1 29
e 1 31
e 1 32
e 1 35
e 1 37
e 1 38
e 1 41
e 1 43
e 1 47
e 2 3
e 2 6
e 2 8
e 2 9
e 2 11
e 2 15
e 2 18
e 2 23
e 2 27
e 2 29
e 2 30
e 2 31
e 2 33
e 2 34
e 2 44
e 2 48
e 3 5
e 3 8
e 3 10
e 3 11
e 3 14
e 3 20
e 3 26
e 3 29
e 3 31
e 3 37
e 3 43
e 3 44
e 3 45
e 3 46
e 3 47
e 3 49
e 4 7
e 4 9
e 4 10
e 4 15
e 4 17
e 4 20
e 4 22
e 4 24
e 4 28
e 4 33
e 4 37
e 4 40
e 4 41
e 4 46
e 4 47
e 4 49
e 5 7
e 5 10
e 5 11
e 5 15
e 5 17
e 5 18
e 5 23
e 5 25
e 5 28
e 5 34
e 5 38
e 5 44
e 5 47
e 6 9
e 6 16
e 6 19
e 6 24
e 6 32
e 6 33
e 6 36
e 6 39
e 6 41
e 6 43
e 6 47
e 7 9
e 7 13
e 7 14
e 7 16
e 7 21
e 7 24
e 7 25
e 7 32
e 7 35
e 7 39
e 7 44
e 7 45
e 8 9
e 8 12
e 8 13
e 8 14
e 8 16
e 8 17
e 8 20
e 8 30
e 8 31
e 8 33
e 8 38
e 8 39
e 8 40
e 8 42
e 8 44
e 8 49
e 9 11
e 9 14
e 9 17
e 9 18
e 9 27
e 9 31
e 9 36
e 9 39
e 9 44
e 9 45
e 9 48
e 10 18
e 10 21
e 10 24
e 10 25
e 10 26
e 10 28
e 10 36
e 10 46
e 10 47
e 10 48
e 11 18
e 11 20
e 11 23
e 11 26
e 11 39
e 11 44
e 12 13
e 12 14
e 12 17
e 12 20
e 12 21
e 12 22
e 12 26
e 12 30
e 12 33
e 12 36
e 12 39
e 12 42
e 12 43
e 12 48
e 13 14
e 13 19
e 13 22
e 13 38
e 13 47
e 13 49
e 14 18
e 14 19
e 14 20
e 14 23
e 14 30
e 14 32
e 15 17
e 15 25
e 15 30
e 15 32
e 15 36
e 15 40
e 15 45
e 15 48
e 16 30
e 16 31
e 16 37
e 16 38
e 16 45
e 16 47
e 17 20
e 17 22
e 17 23
e 17 24
e 17 27
e 17 28
e 17 30
e 17 31
e 17 35
e 17 40
e 17 43
e 17 44
e 18 21
e 18 22
e 18 24
e 18 25
e 18 28
e 18 31
e 18 33
e 18 37
e 18 45
e 18 46
e 18 49
e 19 21
e 19 22
e 19 29
e 19 30
e 19 33
e 19 34
e 19 37
e 19 38
e 19 47
e 20 22
e 20 24
e 20 28
e 20 31
e 20 32
e 20 35
e 20 38
e 20 42
e 20 45
e 21 27
e 21 31
e 21 35
e 21 41
e 22 24
e 22 27
e 22 28
e 22 29
e 22 31
e 22 38
e 22 42
e 22 47
e 22 48
e 22 49
e 23 31
e 24 25
e 24 30
e 24 32
e 24 35
e 24 36
e 24 40
e 24 41
e 24 46
e 24 48
e 24 49
e 25 28
e 25 32
e 25 34
e 25 36
e 25 38
e 25 39
e 25 41
e 25 42
e 25 46
e 25 47
e 25 48
e 25 49
e 26 28
e 26 29
e 26 30
e 26 31
e 26 37
e 26 38
e 26 41
e 26 49
e 27 28
e 27 35
e 27 37
e 27 39
e 27 43
e 27 47
e 28 30
e 28 32
e 28 35
e 28 37
e 29 30
e 29 32
e 29 37
e 29 44
e 29 47
e 29 48
e 30 33
e 30 36
e 30 37
e 30 39
e 30 40
e 30 46
e 31 34
e 31 36
e 31 37
e 31 38
e 31 43
e 31 45
e 31 46
e 32 33
e 32 34
e 32 36
e 32 38
e 32 39
e 32 44
e 32 45
e 33 37
e 33 38
e 33 40
e 33 41
e 33 42
e 34 38
e 34 41
e 34 43
e 35 37
e 35 46
e 35 49
e 36 47
e 36 48
e 37 39
e 37 41
e 37 42
e 37 48
e 38 41
e 38 46
e 38 47
e 39 47
e 40 42
e 40 43
e 40 47
e 40 48
e 41 46
e 41 47
e 42 49
e 44 45
e 44 47
e 45 46
e 45 48
e 46 47
e 47 49
